(declare-const c_0 Real)
(declare-const c_1 Real)
(declare-const c_2 Real)
(declare-const c_3 Real)
(declare-const c_4 Real)
(declare-const c_5 Real)
(declare-const c_6 Real)
(declare-const c_7 Real)
(declare-const c_8 Real)
(declare-const s_0 Real)
(declare-const s_1 Real)
(declare-const s_2 Real)
(declare-const s_3 Real)
(declare-const s_4 Real)
(declare-const s_5 Real)
(declare-const s_6 Real)
(declare-const s_7 Real)
(declare-const s_8 Real)
(assert (forall ((y1 Real) (y2 Real) ) (=> (and (>= (+ (* 1024 1) (* 1 y1 ) ) 0) (>= (+ (* 1023 1) (* (- 1) y1 ) ) 0) (>= (+ (* 1024 1) (* 1 y2 ) ) 0) (>= (+ (* 1023 1) (* (- 1) y2 ) ) 0) ) (>= (+ (* 1 s_0 ) (* 1 s_1 y1 ) (* 1 s_2 y2 ) ) 0) )))
(assert (forall ((y1 Real) (y2 Real) ) (=> (and (>= (+ (* 1024 1) (* 1 y1 ) ) 0) (>= (+ (* 1023 1) (* (- 1) y1 ) ) 0) (>= (+ (* 1024 1) (* 1 y2 ) ) 0) (>= (+ (* 1023 1) (* (- 1) y2 ) ) 0) ) (>= (+ (* 1 c_0 ) (* 1 c_1 y1 ) (* 1 c_2 y2 ) ) 0) )))
(assert (forall ((y1 Real) (y2 Real) ) (=> (and (>= (* 1 y1 ) 0) (>= (* 1 y2 ) 0) (>= (+ (* 1024 1) (* 1 y1 ) ) 0) (>= (+ (* 1024 1) (* 1 y2 ) ) 0) (>= (+ (* 1023 1) (* (- 1) y2 ) ) 0) (>= (+ (* 1023 1) (* (- 1) y1 ) ) 0) (>= (+ (* 1 s_0 ) (* 1 s_1 y1 ) (* 1 s_2 y2 ) ) 0) ) (>= (+ (* 1 s_3 ) (* 1 s_4 y1 ) (* 1 s_5 y2 ) ) 0) )))
(assert (forall ((y1 Real) (y2 Real) ) (=> (and (>= (* 1 y1 ) 0) (>= (* 1 y2 ) 0) (>= (+ (* 1024 1) (* 1 y1 ) ) 0) (>= (+ (* 1024 1) (* 1 y2 ) ) 0) (>= (+ (* 1023 1) (* (- 1) y2 ) ) 0) (>= (+ (* 1023 1) (* (- 1) y1 ) ) 0) (>= (+ (* 1 s_0 ) (* 1 s_1 y1 ) (* 1 s_2 y2 ) ) 0) ) (>= (+ (* 1 c_3 ) (* 1 c_4 y1 ) (* 1 c_5 y2 ) ) 0) )))
(assert (forall ((y1 Real) (y2 Real) ) (=> (and (>= (* 1 y1 ) 0) (>= (* 1 y2 ) 0) (>= (+ (* 1024 1) (* 1 y1 ) ) 0) (>= (+ (* 1024 1) (* 1 y2 ) ) 0) (>= (+ (* 1023 1) (* (- 1) y2 ) ) 0) (>= (+ (* 1023 1) (* (- 1) y1 ) ) 0) (>= (+ (* 1 s_0 ) (* 1 s_1 y1 ) (* 1 s_2 y2 ) ) 0) ) (>= (+ (* (- 1) 1) (* 1 c_0 ) (* 1 c_1 y1 ) (* 1 c_2 y2 ) (* (- 1) c_3 ) (* (- 1) c_4 y1 ) (* (- 1) c_5 y2 ) ) 0) )))
(assert (forall ((y1 Real) (y2 Real) ) (=> (and (>= (+ (* (- 1) 1) (* (- 1) y1 ) ) 0) (>= (+ (* 1024 1) (* 1 y1 ) ) 0) (>= (+ (* 1024 1) (* 1 y2 ) ) 0) (>= (+ (* 1023 1) (* (- 1) y2 ) ) 0) (>= (+ (* 1023 1) (* (- 1) y1 ) ) 0) (>= (+ (* 1 s_0 ) (* 1 s_1 y1 ) (* 1 s_2 y2 ) ) 0) ) (>= (+ (* 1 s_6 ) (* 1 s_7 y1 ) (* 1 s_8 y2 ) ) 0) )))
(assert (forall ((y1 Real) (y2 Real) ) (=> (and (>= (+ (* (- 1) 1) (* (- 1) y1 ) ) 0) (>= (+ (* 1024 1) (* 1 y1 ) ) 0) (>= (+ (* 1024 1) (* 1 y2 ) ) 0) (>= (+ (* 1023 1) (* (- 1) y2 ) ) 0) (>= (+ (* 1023 1) (* (- 1) y1 ) ) 0) (>= (+ (* 1 s_0 ) (* 1 s_1 y1 ) (* 1 s_2 y2 ) ) 0) ) (>= (+ (* 1 c_6 ) (* 1 c_7 y1 ) (* 1 c_8 y2 ) ) 0) )))
(assert (forall ((y1 Real) (y2 Real) ) (=> (and (>= (+ (* (- 1) 1) (* (- 1) y2 ) ) 0) (>= (+ (* 1024 1) (* 1 y1 ) ) 0) (>= (+ (* 1024 1) (* 1 y2 ) ) 0) (>= (+ (* 1023 1) (* (- 1) y2 ) ) 0) (>= (+ (* 1023 1) (* (- 1) y1 ) ) 0) (>= (+ (* 1 s_0 ) (* 1 s_1 y1 ) (* 1 s_2 y2 ) ) 0) ) (>= (+ (* 1 s_6 ) (* 1 s_7 y1 ) (* 1 s_8 y2 ) ) 0) )))
(assert (forall ((y1 Real) (y2 Real) ) (=> (and (>= (+ (* (- 1) 1) (* (- 1) y2 ) ) 0) (>= (+ (* 1024 1) (* 1 y1 ) ) 0) (>= (+ (* 1024 1) (* 1 y2 ) ) 0) (>= (+ (* 1023 1) (* (- 1) y2 ) ) 0) (>= (+ (* 1023 1) (* (- 1) y1 ) ) 0) (>= (+ (* 1 s_0 ) (* 1 s_1 y1 ) (* 1 s_2 y2 ) ) 0) ) (>= (+ (* 1 c_6 ) (* 1 c_7 y1 ) (* 1 c_8 y2 ) ) 0) )))
(assert (forall ((y1 Real) (y2 Real) ) (=> (and (>= (+ (* (- 1) 1) (* 1 y1 ) (* (- 1) y2 ) ) 0) (>= (+ (* (- 1) 1) (* (- 1) y1 ) (* 1 y2 ) ) 0) (>= (* 1 y1 ) 0) (>= (* 1 y2 ) 0) (>= (+ (* 1023 1) (* (- 1) y2 ) ) 0) (>= (+ (* 1023 1) (* (- 1) y1 ) ) 0) (>= (+ (* 1 s_3 ) (* 1 s_4 y1 ) (* 1 s_5 y2 ) ) 0) ) (>= (+ (* 1 s_3 ) (* 1 s_4 y1 ) (* (- 1) s_4 y2 ) (* 1 s_5 y2 ) ) 0) )))
(assert (forall ((y1 Real) (y2 Real) ) (=> (and (>= (+ (* (- 1) 1) (* 1 y1 ) (* (- 1) y2 ) ) 0) (>= (+ (* (- 1) 1) (* (- 1) y1 ) (* 1 y2 ) ) 0) (>= (* 1 y1 ) 0) (>= (* 1 y2 ) 0) (>= (+ (* 1023 1) (* (- 1) y2 ) ) 0) (>= (+ (* 1023 1) (* (- 1) y1 ) ) 0) (>= (+ (* 1 s_3 ) (* 1 s_4 y1 ) (* 1 s_5 y2 ) ) 0) ) (>= (+ (* 1 c_3 ) (* 1 c_4 y1 ) (* (- 1) c_4 y2 ) (* 1 c_5 y2 ) ) 0) )))
(assert (forall ((y1 Real) (y2 Real) ) (=> (and (>= (+ (* (- 1) 1) (* 1 y1 ) (* (- 1) y2 ) ) 0) (>= (+ (* (- 1) 1) (* (- 1) y1 ) (* 1 y2 ) ) 0) (>= (* 1 y1 ) 0) (>= (* 1 y2 ) 0) (>= (+ (* 1023 1) (* (- 1) y2 ) ) 0) (>= (+ (* 1023 1) (* (- 1) y1 ) ) 0) (>= (+ (* 1 s_3 ) (* 1 s_4 y1 ) (* 1 s_5 y2 ) ) 0) ) (>= (+ (* (- 1) 1) (* 1 c_4 y2 ) ) 0) )))
(assert (forall ((y1 Real) (y2 Real) ) (=> (and (>= (+ (* (- 1) y1 ) (* 1 y2 ) ) 0) (>= (+ (* (- 1) 1) (* (- 1) y1 ) (* 1 y2 ) ) 0) (>= (* 1 y1 ) 0) (>= (* 1 y2 ) 0) (>= (+ (* 1023 1) (* (- 1) y2 ) ) 0) (>= (+ (* 1023 1) (* (- 1) y1 ) ) 0) (>= (+ (* 1 s_3 ) (* 1 s_4 y1 ) (* 1 s_5 y2 ) ) 0) ) (>= (+ (* 1 s_3 ) (* 1 s_4 y1 ) (* (- 1) s_5 y1 ) (* 1 s_5 y2 ) ) 0) )))
(assert (forall ((y1 Real) (y2 Real) ) (=> (and (>= (+ (* (- 1) y1 ) (* 1 y2 ) ) 0) (>= (+ (* (- 1) 1) (* (- 1) y1 ) (* 1 y2 ) ) 0) (>= (* 1 y1 ) 0) (>= (* 1 y2 ) 0) (>= (+ (* 1023 1) (* (- 1) y2 ) ) 0) (>= (+ (* 1023 1) (* (- 1) y1 ) ) 0) (>= (+ (* 1 s_3 ) (* 1 s_4 y1 ) (* 1 s_5 y2 ) ) 0) ) (>= (+ (* 1 c_3 ) (* 1 c_4 y1 ) (* (- 1) c_5 y1 ) (* 1 c_5 y2 ) ) 0) )))
(assert (forall ((y1 Real) (y2 Real) ) (=> (and (>= (+ (* (- 1) y1 ) (* 1 y2 ) ) 0) (>= (+ (* (- 1) 1) (* (- 1) y1 ) (* 1 y2 ) ) 0) (>= (* 1 y1 ) 0) (>= (* 1 y2 ) 0) (>= (+ (* 1023 1) (* (- 1) y2 ) ) 0) (>= (+ (* 1023 1) (* (- 1) y1 ) ) 0) (>= (+ (* 1 s_3 ) (* 1 s_4 y1 ) (* 1 s_5 y2 ) ) 0) ) (>= (+ (* (- 1) 1) (* 1 c_5 y1 ) ) 0) )))
(assert (forall ((y1 Real) (y2 Real) ) (=> (and (>= (+ (* (- 1) 1) (* 1 y1 ) (* (- 1) y2 ) ) 0) (>= (* 1 y1 ) 0) (>= (* 1 y2 ) 0) (>= (+ (* 1023 1) (* (- 1) y2 ) ) 0) (>= (+ (* 1023 1) (* (- 1) y1 ) ) 0) (>= (+ (* 1 s_3 ) (* 1 s_4 y1 ) (* 1 s_5 y2 ) ) 0) ) (>= (+ (* 1 s_3 ) (* 1 s_4 y1 ) (* (- 1) s_4 y2 ) (* 1 s_5 y2 ) ) 0) )))
(assert (forall ((y1 Real) (y2 Real) ) (=> (and (>= (+ (* (- 1) 1) (* 1 y1 ) (* (- 1) y2 ) ) 0) (>= (* 1 y1 ) 0) (>= (* 1 y2 ) 0) (>= (+ (* 1023 1) (* (- 1) y2 ) ) 0) (>= (+ (* 1023 1) (* (- 1) y1 ) ) 0) (>= (+ (* 1 s_3 ) (* 1 s_4 y1 ) (* 1 s_5 y2 ) ) 0) ) (>= (+ (* 1 c_3 ) (* 1 c_4 y1 ) (* (- 1) c_4 y2 ) (* 1 c_5 y2 ) ) 0) )))
(assert (forall ((y1 Real) (y2 Real) ) (=> (and (>= (+ (* (- 1) 1) (* 1 y1 ) (* (- 1) y2 ) ) 0) (>= (* 1 y1 ) 0) (>= (* 1 y2 ) 0) (>= (+ (* 1023 1) (* (- 1) y2 ) ) 0) (>= (+ (* 1023 1) (* (- 1) y1 ) ) 0) (>= (+ (* 1 s_3 ) (* 1 s_4 y1 ) (* 1 s_5 y2 ) ) 0) ) (>= (+ (* (- 1) 1) (* 1 c_4 y2 ) ) 0) )))
(assert (forall ((y1 Real) (y2 Real) ) (=> (and (>= (+ (* (- 1) y1 ) (* 1 y2 ) ) 0) (>= (+ (* (- 1) 1) (* 1 y1 ) (* (- 1) y2 ) ) 0) (>= (* 1 y1 ) 0) (>= (* 1 y2 ) 0) (>= (+ (* 1023 1) (* (- 1) y2 ) ) 0) (>= (+ (* 1023 1) (* (- 1) y1 ) ) 0) (>= (+ (* 1 s_3 ) (* 1 s_4 y1 ) (* 1 s_5 y2 ) ) 0) ) (>= (+ (* 1 s_3 ) (* 1 s_4 y1 ) (* (- 1) s_5 y1 ) (* 1 s_5 y2 ) ) 0) )))
(assert (forall ((y1 Real) (y2 Real) ) (=> (and (>= (+ (* (- 1) y1 ) (* 1 y2 ) ) 0) (>= (+ (* (- 1) 1) (* 1 y1 ) (* (- 1) y2 ) ) 0) (>= (* 1 y1 ) 0) (>= (* 1 y2 ) 0) (>= (+ (* 1023 1) (* (- 1) y2 ) ) 0) (>= (+ (* 1023 1) (* (- 1) y1 ) ) 0) (>= (+ (* 1 s_3 ) (* 1 s_4 y1 ) (* 1 s_5 y2 ) ) 0) ) (>= (+ (* 1 c_3 ) (* 1 c_4 y1 ) (* (- 1) c_5 y1 ) (* 1 c_5 y2 ) ) 0) )))
(assert (forall ((y1 Real) (y2 Real) ) (=> (and (>= (+ (* (- 1) y1 ) (* 1 y2 ) ) 0) (>= (+ (* (- 1) 1) (* 1 y1 ) (* (- 1) y2 ) ) 0) (>= (* 1 y1 ) 0) (>= (* 1 y2 ) 0) (>= (+ (* 1023 1) (* (- 1) y2 ) ) 0) (>= (+ (* 1023 1) (* (- 1) y1 ) ) 0) (>= (+ (* 1 s_3 ) (* 1 s_4 y1 ) (* 1 s_5 y2 ) ) 0) ) (>= (+ (* (- 1) 1) (* 1 c_5 y1 ) ) 0) )))
(assert (forall ((y1 Real) (y2 Real) ) (=> (and (>= (+ (* 1 y1 ) (* (- 1) y2 ) ) 0) (>= (+ (* (- 1) y1 ) (* 1 y2 ) ) 0) (>= (* 1 y1 ) 0) (>= (* 1 y2 ) 0) (>= (+ (* 1023 1) (* (- 1) y2 ) ) 0) (>= (+ (* 1023 1) (* (- 1) y1 ) ) 0) (>= (+ (* 1 s_3 ) (* 1 s_4 y1 ) (* 1 s_5 y2 ) ) 0) ) (>= (+ (* 1 s_6 ) (* 1 s_7 y1 ) (* 1 s_8 y2 ) ) 0) )))
(assert (forall ((y1 Real) (y2 Real) ) (=> (and (>= (+ (* 1 y1 ) (* (- 1) y2 ) ) 0) (>= (+ (* (- 1) y1 ) (* 1 y2 ) ) 0) (>= (* 1 y1 ) 0) (>= (* 1 y2 ) 0) (>= (+ (* 1023 1) (* (- 1) y2 ) ) 0) (>= (+ (* 1023 1) (* (- 1) y1 ) ) 0) (>= (+ (* 1 s_3 ) (* 1 s_4 y1 ) (* 1 s_5 y2 ) ) 0) ) (>= (+ (* 1 c_6 ) (* 1 c_7 y1 ) (* 1 c_8 y2 ) ) 0) )))

(check-sat)
(get-model)
